(set-logic ALL)
(declare-fun seed0_T_1 () Bool)
(declare-fun seed0_var_0xINPUT_551802 () String)
(assert (and (or (= seed0_T_1 (not (= "file:" seed0_var_0xINPUT_551802))) (and (str.suffixof (str.++ seed0_var_0xINPUT_551802 "uU9aIKeVZzi75jhXAy") (str.++ seed0_var_0xINPUT_551802 "olvQEtFZAYqkR")) (str.contains (str.++ seed0_var_0xINPUT_551802 "YdFVZr1BCDg") (str.++ seed0_var_0xINPUT_551802 "MItqGv7ugC15zwhXUOYc")))) (or seed0_T_1 (or (str.contains (str.++ seed0_var_0xINPUT_551802 "KEw") (str.++ seed0_var_0xINPUT_551802 "Z0VodAvz")) (str.prefixof (str.++ seed0_var_0xINPUT_551802 "8rozEgNUvPK") (str.++ seed0_var_0xINPUT_551802 "cEK7mOLe6RaPz"))))))
(check-sat)
(exit)